c FILE /home/rafael/Documents/HappySet/MIHS/inputs/happygen/output/graph_d_regular_k2_p0.2_v50_20241127_082542.txt
c SOURCE This is a d-regular graph formed for the happy graph colouring problem.
c DESCRIPTION It was generated using the problem generator of Rhyd Lewis
c
c GRAPH STATS
c Seed                             = 204243860
c Number of Nodes                  = 50
c Number of colours k              = 2
c Number of pre-assignments        = 10
c Degree of all vertices           = 6
c Density                          = 0.122449
c 
c The degrees of nodes 1 to 50, respectively, are as follows 
c [6, 6, 6, 6, 6, 6, 6, 6, 6, 6, 6, 6, 6, 6, 6, 6, 6, 6, 6, 6, 6, 6, 6, 6, 6, 6, 
c  6, 6, 6, 6, 6, 6, 6, 6, 6, 6, 6, 6, 6, 6, 6, 6, 6, 6, 6, 6, 6, 6, 6, 6] 
c  
p edge 50 150 2
e 1 7
e 1 15
e 1 18
e 1 22
e 1 30
e 1 36
e 2 14
e 2 22
e 2 43
e 2 44
e 2 45
e 2 50
e 3 9
e 3 11
e 3 13
e 3 37
e 3 40
e 3 42
e 4 34
e 4 35
e 4 36
e 4 39
e 4 44
e 4 46
e 5 6
e 5 10
e 5 11
e 5 12
e 5 20
e 5 23
e 6 18
e 6 28
e 6 29
e 6 36
e 6 39
e 7 32
e 7 36
e 7 40
e 7 47
e 7 48
e 8 12
e 8 16
e 8 23
e 8 24
e 8 45
e 8 48
e 9 10
e 9 16
e 9 17
e 9 26
e 9 46
e 10 31
e 10 34
e 10 37
e 10 44
e 11 13
e 11 14
e 11 17
e 11 36
e 12 15
e 12 18
e 12 22
e 12 50
e 13 26
e 13 28
e 13 30
e 13 35
e 14 19
e 14 29
e 14 35
e 14 47
e 15 23
e 15 29
e 15 41
e 15 45
e 16 32
e 16 33
e 16 38
e 16 47
e 17 24
e 17 29
e 17 30
e 17 49
e 18 25
e 18 30
e 18 31
e 19 20
e 19 26
e 19 42
e 19 43
e 19 50
e 20 26
e 20 30
e 20 39
e 20 41
e 21 24
e 21 27
e 21 40
e 21 42
e 21 46
e 21 50
e 22 23
e 22 29
e 22 32
e 23 28
e 23 32
e 24 35
e 24 37
e 24 43
e 25 27
e 25 33
e 25 41
e 25 47
e 25 49
e 26 46
e 26 48
e 27 31
e 27 41
e 27 44
e 27 48
e 28 31
e 28 33
e 28 47
e 29 39
e 30 50
e 31 38
e 31 48
e 32 36
e 32 44
e 33 34
e 33 37
e 33 42
e 34 35
e 34 40
e 34 49
e 35 45
e 37 38
e 37 39
e 38 45
e 38 46
e 38 49
e 39 44
e 40 43
e 40 50
e 41 47
e 41 49
e 42 45
e 42 49
e 43 46
e 43 48
n 5 2
n 10 2
n 16 2
n 19 2
n 36 2
n 39 2
n 40 2
n 44 2
n 45 2
n 49 1
